NAME: tsp_130
COMMENT: Random TSP instance
TYPE: TSP
DIMENSION: 50
EDGE_WEIGHT_TYPE: EUC_2D
NODE_COORD_SECTION
1 579 211
2 950 690
3 995 411
4 157 235
5 342 734
6 374 706
7 765 563
8 356 939
9 370 957
10 909 575
11 388 33
12 923 305
13 259 483
14 570 944
15 355 261
16 391 846
17 813 153
18 242 817
19 306 241
20 422 282
21 664 765
22 726 484
23 431 93
24 553 538
25 892 231
26 499 900
27 727 455
28 354 877
29 173 740
30 594 219
31 812 72
32 669 829
33 410 590
34 181 569
35 938 376
36 452 503
37 697 420
38 1000 158
39 710 865
40 243 47
41 862 897
42 562 865
43 401 322
44 168 521
45 919 597
46 35 105
47 168 88
48 36 455
49 59 123
50 688 450
